SAT
-1 100 -98 53 55 8 43 97 67 99 -10 29 83 63 19 -46 35 -30 94 86 79 -84 -16 -58 80 40 15 42 50 57 -3 59 52 81 38 -37 -49 -20 -69 -12 72 -18 -17 21 75 -91 -41 36 96 93 -56 -25 24 -7 54 -77 82 -65 85 -51 -88 5 -71 -26 90 61 -89 -47 32 -76 -78 -92 2 -87 34 -11 73 95 22 14 39 68 23 -45 70 -28 -74 33 4 -27 -31 9 -13 48 60 -44 6 -66 64 -62 0
